LAMMPS (4 Dec 2011)
units		lj
atom_style		full
boundary		p p p
#read_restart		 old_config1.dat
read_data		elppts.dat
  1 = max bonds/atom
  orthogonal box = (-50 -50 -50) to (50 50 50)
  1 by 1 by 1 MPI processor grid
  2424 atoms
  1212 bonds
  1 = max # of 1-2 neighbors
  0 = max # of 1-3 neighbors
  0 = max # of 1-4 neighbors
  1 = max # of special neighbors
neighbor		 0.3 bin
neigh_modify		every 1 delay 1
bond_style		harmonic
#bond_coeff		1 800 3.0 2.5 2.5 1 3.0

variable		a equal 9.82078894588
variable		c equal 9.82078894588
bond_coeff		1 10000 1 ${a} ${a} ${c} 1
bond_coeff		1 10000 1 9.820788946 ${a} ${c} 1
bond_coeff		1 10000 1 9.820788946 9.820788946 ${c} 1
bond_coeff		1 10000 1 9.820788946 9.820788946 9.820788946 1

pair_style coul/cut 2.5
pair_coeff 1 1 0
pair_coeff 2 2 20.0
pair_coeff 1 2 0 
#pair_coeff		 2 2 soft 1.0 1.0
#group		ligands type 2 3
#pair_coeff		 1 2 lj/cut 0 1.0 1.12246
##pair_coeff		 1 4 lj/cut 1.0 1.0 1.12246
##pair_coeff		 2 4 lj/cut 1.0 1.0 1.12246
##pair_coeff		 3 4 lj/cut 1.0 1.0 1.12246
##pair_coeff		 4 4 lj/cut 1.0 1.0 1.12246
#pair_coeff		 2 3 lj/cut 1.0 1.0 2.24492
#pair_coeff		 1 3 lj/cut 1.0 1.0 1.12246
#pair_coeff		 3 3 lj/cut 1.0 1.0 1.12246
pair_modify		shift yes
#group			cores type 1
#group			ligands type 2 3 
#group			tail type 3
group			heads type 2
1212 atoms in group heads
velocity		heads create 0.0 482748
#velocity		cores create 0.0 1

##Squishing via deform:
#restart		1000 old_config_1.dat squishedconfig.dat
#fix		5 all nve
#fix		ywalls all wall/lj93 ylo EDGE 1.0 1.0 2.5 yhi EDGE 1.0 1.0 2.5 units box
#fix		6 all langevin 1.5 1.5 1 404297
#timestep		0.001
#run		100000
#fix		7 all deform 1 x final -10 10 z final -10 10 units box
#thermo		2000
#timestep		0.001
#run		200000
#

#NVE Run
restart		1000 old1.dat old2.dat 
fix		5 heads nve
fix		6 heads langevin 0.01 0.01 0.1 404297   # the "1" term after temp_initial and temp_final is the "drag" coefficient/inverse drag from Langevin dynamics.
#minimize 1.0e-4 1.0e-6 100 1000
dump		id all atom 1000 config.lammpstrj
timestep		0.0001
thermo		1000	
run		50000
Memory usage per processor = 9.63983 Mbytes
Step Temp E_pair E_mol TotEng Press 
       0            0            0 9.1474558e-18 9.1474558e-18 3.4559409e-10 
    1000 0.0039644808            0 0.00016021419 0.0061044821 6.1378067e-05 
    2000 0.0045441632            0 0.00021956428 0.0070329972 -0.00012807358 
    3000 0.0048778759            0 0.0002471377 0.0075609331 2.6586581e-05 
    4000 0.0051300718            0 0.00025527864 0.0079472119 1.6380596e-06 
    5000 0.0053233403            0 0.00024365801 0.0082253744 7.5850284e-05 
    6000 0.0049270135            0 0.00025456681 0.0076420381 -3.2415334e-05 
    7000 0.0048620957            0 0.0002474218 0.0075375567 4.5709675e-05 
    8000 0.0051258349            0 0.00026657164 0.0079521521 -5.2124648e-05 
    9000 0.0050669461            0 0.00025655612 0.0078538398 4.9301158e-05 
   10000 0.0052339413            0 0.00025564864 0.0081033218 2.1298177e-06 
   11000 0.0047925862            0 0.0002535768 0.0074394904 2.482664e-05 
   12000 0.0050458817            0 0.00024522356 0.0078109236 1.1718173e-06 
   13000 0.0050077255            0 0.00026186458  0.007770354 3.9726643e-06 
   14000 0.0050410283            0 0.00025268068 0.0078111037 4.3338678e-05 
   15000 0.0049262599            0 0.00024549166 0.0076318331 2.8054499e-05 
   16000 0.0050425369            0 0.00024499299  0.007805678 4.5134405e-05 
   17000 0.0050082138            0 0.0002552341 0.0077644556 5.0469208e-06 
   18000 0.0050065773            0 0.00024792989 0.0077546977 3.6572216e-05 
   19000 0.0049922136            0 0.00025832629 0.0077435574 -9.5267327e-06 
   20000 0.0052901182            0 0.00025922752 0.0081911312 2.3500964e-05 
   21000 0.0050208423            0 0.00027114385 0.0077993004 -1.481552e-05 
   22000 0.0049296224            0 0.00024887266 0.0076402557 1.5758981e-05 
   23000 0.0048630545            0 0.00025944384 0.0075510163 5.8270414e-05 
   24000 0.0050499189            0 0.00025134041 0.0078230938 -3.6895868e-05 
   25000  0.005243597            0 0.00025173685 0.0081138876 3.7857245e-05 
   26000   0.00504297            0 0.00025662926 0.0078179635 9.9651352e-05 
   27000   0.00484561            0 0.00025611604 0.0075215325 1.3072069e-05 
   28000 0.0049014743            0 0.00024718725 0.0075963656 -8.2024359e-06 
   29000 0.0050071885            0 0.00025127994 0.0077589642 5.4342601e-05 
   30000 0.0050366229            0 0.00025647328 0.0078082909 -5.9129054e-05 
   31000 0.0050008104            0 0.00026471275 0.0077628337 3.4189756e-05 
   32000 0.0047818282            0 0.00025169017 0.0074214734 7.3749844e-05 
   33000 0.0046986856            0 0.00025592815  0.007301049 -8.0815592e-05 
   34000 0.0049034954            0 0.00023220551 0.0075844142 1.0376299e-05 
   35000 0.0049129356            0 0.00025076198 0.0076171251 -3.7533943e-05 
   36000 0.0050312947            0 0.00024607314 0.0077899018 -4.0776606e-05 
   37000 0.0049649777            0 0.0002422912 0.0076866854 4.2692356e-05 
   38000 0.0050849166            0 0.00024521092 0.0078694392 2.8598002e-05 
   39000  0.004912709            0 0.00026375209 0.0076297755 -2.6990166e-05 
   40000 0.0048496649            0 0.00025677851 0.0075282748 5.992062e-05 
   41000 0.0051553478            0 0.00024570418 0.0079755357 3.3793013e-06 
   42000 0.0050072662            0 0.00027094275 0.0077787434 -5.9780605e-05 
   43000   0.00501306            0 0.00026252737 0.0077790152 9.9238504e-05 
   44000 0.0051278503            0 0.00025847834 0.0079470806 -0.00012222116 
   45000 0.0051235596            0 0.00025497059 0.0079371394 7.8371317e-06 
   46000 0.0050645821            0 0.00026891072 0.0078626499 4.8842321e-05 
   47000 0.0050479958            0 0.00025441136 0.0078232814 5.661272e-05 
   48000 0.0046360585            0 0.00025172303 0.0072029419 3.7377113e-05 
   49000 0.0050287989            0 0.00023537498 0.0077754614 6.3126944e-05 
   50000 0.0050769967            0 0.00025823324 0.0078705865 -1.435315e-05 
Loop time of 647.124 on 1 procs for 50000 steps with 2424 atoms

Pair  time (%) = 640.078 (98.9113)
Bond  time (%) = 2.30957 (0.356898)
Neigh time (%) = 0.657768 (0.101645)
Comm  time (%) = 0.0375941 (0.00580941)
Outpt time (%) = 0.0962272 (0.01487)
Other time (%) = 3.94416 (0.609491)

Nlocal:    2424 ave 2424 max 2424 min
Histogram: 1 0 0 0 0 0 0 0 0 0
Nghost:    0 ave 0 max 0 min
Histogram: 1 0 0 0 0 0 0 0 0 0
Neighs:    1.46773e+06 ave 1.46773e+06 max 1.46773e+06 min
Histogram: 1 0 0 0 0 0 0 0 0 0

Total # of neighbors = 1467732
Ave neighs/atom = 605.5
Ave special neighs/atom = 1
Neighbor list builds = 50
Dangerous builds = 0

