LAMMPS (4 Dec 2011)
units		lj
atom_style		full
boundary		p p p
#read_restart		 old_config1.dat
read_data		elppts.dat
  1 = max bonds/atom
  orthogonal box = (-50 -50 -50) to (50 50 50)
  1 by 1 by 1 MPI processor grid
  2424 atoms
  1212 bonds
  1 = max # of 1-2 neighbors
  0 = max # of 1-3 neighbors
  0 = max # of 1-4 neighbors
  1 = max # of special neighbors
neighbor		 0.3 bin
neigh_modify		every 1 delay 1
bond_style		harmonic
#bond_coeff		1 800 3.0 2.5 2.5 1 3.0

variable		a equal 12.1308950626
variable		c equal 5.28773456725
bond_coeff		1 10000 1 ${a} ${a} ${c} 1
bond_coeff		1 10000 1 12.13089506 ${a} ${c} 1
bond_coeff		1 10000 1 12.13089506 12.13089506 ${c} 1
bond_coeff		1 10000 1 12.13089506 12.13089506 5.287734567 1

pair_style soft 1.0
pair_coeff 1 1 0 1
pair_coeff 2 2 20.0 1.1
pair_coeff 1 2 0
#pair_coeff		 2 2 soft 1.0 1.0
#group		ligands type 2 3
#pair_coeff		 1 2 lj/cut 0 1.0 1.12246
##pair_coeff		 1 4 lj/cut 1.0 1.0 1.12246
##pair_coeff		 2 4 lj/cut 1.0 1.0 1.12246
##pair_coeff		 3 4 lj/cut 1.0 1.0 1.12246
##pair_coeff		 4 4 lj/cut 1.0 1.0 1.12246
#pair_coeff		 2 3 lj/cut 1.0 1.0 2.24492
#pair_coeff		 1 3 lj/cut 1.0 1.0 1.12246
#pair_coeff		 3 3 lj/cut 1.0 1.0 1.12246
pair_modify		shift yes
#group			cores type 1
#group			ligands type 2 3 
#group			tail type 3
group			heads type 2
1212 atoms in group heads
velocity		heads create 0.0 482748
#velocity		cores create 0.0 1

##Squishing via deform:
#restart		1000 old_config_1.dat squishedconfig.dat
#fix		5 all nve
#fix		ywalls all wall/lj93 ylo EDGE 1.0 1.0 2.5 yhi EDGE 1.0 1.0 2.5 units box
#fix		6 all langevin 1.5 1.5 1 404297
#timestep		0.001
#run		100000
#fix		7 all deform 1 x final -10 10 z final -10 10 units box
#thermo		2000
#timestep		0.001
#run		200000
#

#NVE Run
restart		1000 old1.dat old2.dat 
fix		5 heads nve
fix		6 heads langevin 0.01 0.005 0.1 404297   # the "1" term after temp_initial and temp_final is the "drag" coefficient/inverse drag from Langevin dynamics.
#minimize 1.0e-4 1.0e-6 100 1000
dump		id all atom 1000 config.lammpstrj
timestep		0.005
thermo		1000	
run		50000
Memory usage per processor = 19.3231 Mbytes
Step Temp E_pair E_mol TotEng Press 
       0            0   0.35163599 1.3817383e-16   0.35163599 0.0012320119 
    1000  0.005899227   0.11623419 0.00035733051   0.12543671  0.001010002 
    2000 0.0054015763  0.077646137 0.00034998467  0.086095144  0.001068527 
    3000 0.0052413689  0.060450007 0.00032327797  0.068632095 0.00090426928 
    4000 0.0053458516  0.050894695 0.00035129222  0.059261456 0.00082718227 
    5000 0.0049754141  0.045201597 0.00034562584  0.053007266 0.00082110747 
    6000 0.0050160102  0.041162748 0.00033278381  0.049016444 0.00079040323 
    7000 0.0050386032  0.038454211 0.00032599028  0.046334988 0.00080426974 
    8000 0.0049398746  0.036798462 0.00034679107  0.044552008 0.00073811605 
    9000 0.0049447177  0.035429209 0.00032541153  0.043168638 0.0007290353 
   10000 0.0049138554  0.034486089 0.00032578918   0.04217962 0.00072633242 
   11000 0.0047715027   0.03364322 0.00028918737  0.041086709 0.00084920713 
   12000 0.0047625803  0.032842758 0.00031559527  0.040299277 0.00071329766 
   13000 0.0047365902  0.032247623 0.00032545935  0.039675037 0.00072695606 
   14000 0.0045563522    0.0315392 0.00033451076   0.03870542 0.00078819858 
   15000 0.0044585375  0.031123777 0.00030223258  0.038111057 0.00080233364 
   16000 0.0046080039  0.030870649 0.00031383624   0.03809364 0.00075909711 
   17000 0.0043083352  0.030894652 0.00031624096   0.03767073 0.00083260895 
   18000 0.0046411073  0.030684564 0.00030216932  0.037945522 0.00071352295 
   19000 0.0041162166  0.030588825 0.00031952614  0.037080129 0.00078814067 
   20000 0.0041728475  0.030594557 0.00028235287  0.037133599 0.00075466295 
   21000 0.0041788989  0.030358352 0.00026915062  0.036893265 0.0006850095 
   22000 0.0041861021  0.030128497 0.00028583175  0.036690891 0.00075519052 
   23000 0.0042472325  0.030117698 0.00027819528  0.036764114 0.00084319438 
   24000 0.0039584757  0.029911872 0.00027744559  0.036124582 0.00068492392 
   25000 0.0041283542  0.029837605 0.00027312497  0.036300706 0.00078012059 
   26000 0.0040076668  0.029829139 0.00027079704  0.036108956 0.00067278345 
   27000 0.0040981254  0.029561732 0.00025766273  0.035964047 0.00073461277 
   28000 0.0038166086  0.029337004 0.00026169985  0.035321255 0.00069928566 
   29000 0.0037107168  0.029072663 0.00026877702  0.034905219 0.00060014884 
   30000 0.0036959708  0.028928943 0.0002397221  0.034710334 0.00070971529 
   31000  0.003634613  0.028692418 0.00022270455  0.034364793 0.00076229101 
   32000 0.0036694843  0.028697726 0.00024340128  0.034443083 0.00068799901 
   33000 0.0035266337  0.028601324 0.00024173799   0.03413083 0.00074168552 
   34000 0.0035307977  0.028650077 0.00024635025  0.034190438 0.0007704919 
   35000 0.0034277837  0.028609893 0.00022626362  0.033975711 0.00066598386 
   36000 0.0034540901  0.028331937 0.00021116966  0.033722105 0.00078145788 
   37000 0.0032633149  0.028139324 0.00022589095  0.033258168 0.00073690906 
   38000 0.0033787813  0.027751982 0.00021239494  0.033030458 0.00071945191 
   39000 0.0032635749  0.027460859 0.00022153793   0.03257574 0.00075366748 
   40000 0.0031768839  0.027419246 0.00023279041  0.032415396 0.00074272917 
   41000  0.003228062  0.027113243 0.00021242811  0.032165767 0.00073554288 
   42000 0.0031313748  0.026950265 0.00020671458  0.031852104 0.00074427371 
   43000 0.0031744713  0.026897657 0.00020100059    0.0318584 0.00068850554 
   44000 0.0030519871  0.026719945 0.00020624144  0.031502278 0.0007253855 
   45000 0.0029253238  0.026440023 0.00020027037  0.031026469 0.00070009327 
   46000 0.0027288117  0.026712974 0.00018847155  0.030992974 0.00065934117 
   47000 0.0028413114  0.026286869 0.00018578043  0.030732859 0.00075348833 
   48000 0.0028585455  0.026044655 0.00017858985  0.030509294 0.00064950768 
   49000 0.0027039929  0.026019202 0.00018861129   0.03026213 0.00068173017 
   50000 0.0026463584  0.025854365 0.00018594405  0.030008209 0.00070794587 
Loop time of 333.625 on 1 procs for 50000 steps with 2424 atoms

Pair  time (%) = 326.24 (97.7863)
Bond  time (%) = 2.44093 (0.731638)
Neigh time (%) = 0.864377 (0.259086)
Comm  time (%) = 0.213628 (0.0640322)
Outpt time (%) = 0.0939775 (0.0281686)
Other time (%) = 3.77263 (1.1308)

Nlocal:    2424 ave 2424 max 2424 min
Histogram: 1 0 0 0 0 0 0 0 0 0
Nghost:    0 ave 0 max 0 min
Histogram: 1 0 0 0 0 0 0 0 0 0
Neighs:    737415 ave 737415 max 737415 min
Histogram: 1 0 0 0 0 0 0 0 0 0

Total # of neighbors = 737415
Ave neighs/atom = 304.214
Ave special neighs/atom = 1
Neighbor list builds = 139
Dangerous builds = 0

