LAMMPS (4 Dec 2011)
units		lj
atom_style		full
boundary		p p p
#read_restart		 old_config1.dat
read_data		elppts.dat
  1 = max bonds/atom
  orthogonal box = (-50 -50 -50) to (50 50 50)
  1 by 1 by 1 MPI processor grid
  2424 atoms
  1212 bonds
  1 = max # of 1-2 neighbors
  0 = max # of 1-3 neighbors
  0 = max # of 1-4 neighbors
  1 = max # of special neighbors
neighbor		 0.3 bin
neigh_modify		every 1 delay 1
bond_style		harmonic
#bond_coeff		1 800 3.0 2.5 2.5 1 3.0

variable		a equal 7.07432523071
variable		c equal 16.2296151444
bond_coeff		1 10000 1 ${a} ${a} ${c} 1
bond_coeff		1 10000 1 7.074325231 ${a} ${c} 1
bond_coeff		1 10000 1 7.074325231 7.074325231 ${c} 1
bond_coeff		1 10000 1 7.074325231 7.074325231 16.22961514 1

pair_style soft 1.0
pair_coeff 1 1 0 1
pair_coeff 2 2 80.0 1.1
pair_coeff 1 2 0
#pair_coeff		 2 2 soft 1.0 1.0
#group		ligands type 2 3
#pair_coeff		 1 2 lj/cut 0 1.0 1.12246
##pair_coeff		 1 4 lj/cut 1.0 1.0 1.12246
##pair_coeff		 2 4 lj/cut 1.0 1.0 1.12246
##pair_coeff		 3 4 lj/cut 1.0 1.0 1.12246
##pair_coeff		 4 4 lj/cut 1.0 1.0 1.12246
#pair_coeff		 2 3 lj/cut 1.0 1.0 2.24492
#pair_coeff		 1 3 lj/cut 1.0 1.0 1.12246
#pair_coeff		 3 3 lj/cut 1.0 1.0 1.12246
pair_modify		shift yes
#group			cores type 1
#group			ligands type 2 3 
#group			tail type 3
group			heads type 2
1212 atoms in group heads
velocity		heads create 0.0 482748
#velocity		cores create 0.0 1

##Squishing via deform:
#restart		1000 old_config_1.dat squishedconfig.dat
#fix		5 all nve
#fix		ywalls all wall/lj93 ylo EDGE 1.0 1.0 2.5 yhi EDGE 1.0 1.0 2.5 units box
#fix		6 all langevin 1.5 1.5 1 404297
#timestep		0.001
#run		100000
#fix		7 all deform 1 x final -10 10 z final -10 10 units box
#thermo		2000
#timestep		0.001
#run		200000
#

#NVE Run
restart		1000 old1.dat old2.dat 
fix		5 heads nve
fix		6 heads langevin 0.01 0.005 0.1 404297   # the "1" term after temp_initial and temp_final is the "drag" coefficient/inverse drag from Langevin dynamics.
#minimize 1.0e-4 1.0e-6 100 1000
dump		id all atom 1000 config.lammpstrj
timestep		0.005
thermo		1000	
run		50000
Memory usage per processor = 19.3231 Mbytes
Step Temp E_pair E_mol TotEng Press 
       0            0    1.2080565 6.3088532e-17    1.2080565 0.0062058714 
    1000 0.0064630323   0.23179701 0.00033778418   0.24182534 0.0036258123 
    2000 0.0054579322   0.15588508 0.00034275146   0.16441136 0.0032482235 
    3000 0.0053228214   0.13776194 0.00032914809   0.14607203 0.0031613338 
    4000 0.0052907362   0.12486753 0.0003005318   0.13310089 0.0029729726 
    5000 0.0049470014   0.11586578 0.00029801797   0.12358124 0.0028841897 
    6000 0.0047608727   0.11223504 0.00032253253   0.11969593 0.0028035789 
    7000 0.0049608131   0.10783276 0.00029764845   0.11556855 0.0028523339 
    8000 0.0050109217   0.10556024 0.00031625808   0.11338978 0.0027717315 
    9000 0.0049269285   0.10516582 0.00030844369    0.1128616 0.0027345414 
   10000 0.0047268409   0.10359873 0.00028109671   0.11096716 0.0028234892 
   11000 0.0046607003   0.10152792 0.00029919216   0.10881528 0.0027733506 
   12000 0.0046639309   0.10053069 0.00029845886   0.10782216 0.0027783602 
   13000 0.0045657451  0.099126219  0.000269455   0.10624147 0.0027681308 
   14000 0.0043742719  0.098684341 0.00028176622   0.10552481 0.0028121484 
   15000 0.0042856714  0.097831196 0.00028475815   0.10454181 0.0027965548 
   16000 0.0046288386  0.097052022 0.00028889922   0.10428132 0.0026811704 
   17000 0.0044813324  0.095965812 0.00029140094   0.10297644 0.0027390387 
   18000 0.0043136023  0.095266511 0.00026932055   0.10200357 0.0026024006 
   19000 0.0042430282  0.094688012 0.00025960217   0.10130953 0.0027328274 
   20000  0.004224738  0.095077035 0.0002463888   0.10165792 0.0027162858 
   21000 0.0041586661  0.094646002 0.00025951866   0.10114095  0.002711676 
   22000 0.0039947653  0.094553896 0.00025769429   0.10080127 0.0027967526 
   23000   0.00400895  0.094235265 0.00027990883   0.10052612   0.00274433 
   24000 0.0041189624  0.093084561 0.00026064411    0.0995211 0.0027975059 
   25000 0.0040218759  0.092779178   0.00023515  0.099044653  0.002766274 
   26000 0.0040567484  0.092532554 0.00022543521  0.098840601 0.0027366772 
   27000 0.0038344223   0.09243004 0.00026096269  0.098440263 0.0026427149 
   28000 0.0036048644  0.092199032 0.0002354258  0.097839524 0.0026792355 
   29000 0.0037160883  0.091606511 0.00025322765  0.097431571 0.0026446009 
   30000 0.0037698657  0.091887944 0.00023571018   0.09777612 0.0026589572 
   31000 0.0034713676  0.091645965 0.00024737153   0.09709824 0.0026923692 
   32000 0.0035622123  0.091496968 0.00022267852  0.097060761 0.0027400907 
   33000 0.0035831571  0.090948176 0.00023328775  0.096553982  0.002672934 
   34000 0.0034930438  0.091124012 0.00021248332  0.096573899 0.0027640635 
   35000 0.0033855452  0.090671026 0.00023373501  0.095980984 0.0026057116 
   36000 0.0032894757  0.090882817 0.00020729257  0.096022287 0.0027438408 
   37000 0.0034222802  0.090283426 0.00021442539  0.095629154 0.0026754818 
   38000 0.0033121347  0.090538653 0.00020788035  0.095712686 0.0027682933 
   39000 0.0032381997  0.090418433 0.00018729306  0.095461022  0.002709428 
   40000 0.0031011046  0.090306637 0.00019189667  0.095148272 0.0027388647 
   41000 0.0031237227  0.090125645 0.00020902488  0.095018321 0.0027067914 
   42000  0.003091495  0.090183617 0.00020574156  0.095024688 0.0026652957 
   43000 0.0030455728  0.089616331 0.00019759773  0.094380403 0.0026386908 
   44000  0.002929835  0.088588905 0.00020568664  0.093187531 0.0026715107 
   45000 0.0028469198  0.087553905 0.00017673305  0.091999256 0.0026723734 
   46000 0.0027452526  0.087249917 0.00018871726  0.091554815 0.0026282434 
   47000 0.0027882324  0.087446777 0.00017882139  0.091806222 0.0026539521 
   48000  0.002762735  0.087459928 0.00018410352  0.091786425 0.0026360471 
   49000 0.0025989641  0.087065775 0.00018774581  0.091150358 0.0026294057 
   50000 0.0027601854  0.087035097 0.00018308034  0.091356747 0.0026604733 
Loop time of 326.515 on 1 procs for 50000 steps with 2424 atoms

Pair  time (%) = 318.871 (97.659)
Bond  time (%) = 2.53888 (0.777569)
Neigh time (%) = 0.958076 (0.293425)
Comm  time (%) = 0.218706 (0.0669821)
Outpt time (%) = 0.0958054 (0.0293418)
Other time (%) = 3.83217 (1.17366)

Nlocal:    2424 ave 2424 max 2424 min
Histogram: 1 0 0 0 0 0 0 0 0 0
Nghost:    0 ave 0 max 0 min
Histogram: 1 0 0 0 0 0 0 0 0 0
Neighs:    737417 ave 737417 max 737417 min
Histogram: 1 0 0 0 0 0 0 0 0 0

Total # of neighbors = 737417
Ave neighs/atom = 304.215
Ave special neighs/atom = 1
Neighbor list builds = 155
Dangerous builds = 0

